c This Formular is generated by mcnf
c
c    horn? no 
c    forced? no 
c    mixed sat? no 
c    clause length = 3 
c
p cnf 20  91 
 5 -10 -15 0
-5 -1 10 0
16 2 20 0
-4 -15 -17 0
7 8 -4 0
6 15 14 0
-15 11 18 0
6 -9 18 0
8 -17 -1 0
18 -17 5 0
-1 -4 -5 0
-2 -8 -5 0
-2 4 -1 0
5 17 -9 0
3 -18 -16 0
17 -1 -18 0
-15 -17 -19 0
-11 -17 20 0
-4 1 5 0
12 -8 3 0
-2 -12 -3 0
%
0

20 9 29 1 20 76 60 7 99 81 27 51 6 77 39 53 11 93 24 72
